Problem:    
Rows:       203
Columns:    85 (70 integer, 70 binary)
Non-zeros:  690
Status:     INTEGER OPTIMAL
Objective:  value = 135.340958 (MINimum)

   No.   Row name        Activity     Lower bound   Upper bound
------ ------------    ------------- ------------- -------------
     1 r.5                   135.341             0               
     2 r.6                   4.05641      -965.133               
     3 r.7                   1135.34             0               
     4 r.8                  -958.053      -962.767               
     5 r.9                   1135.34             0               
     6 r.10                 -944.315      -965.015               
     7 r.11                  135.341             0               
     8 r.12                 -783.533      -962.698               
     9 r.13                  135.341             0               
    10 r.14                 -30.8105      -997.462               
    11 r.15                  1135.34             0               
    12 r.16                 -995.286      -995.286               
    13 r.17                  135.341             0               
    14 r.18                 -859.123      -994.464               
    15 r.19                  1135.34             0               
    16 r.20                 -950.649      -992.596               
    17 r.21                  1135.34             0               
    18 r.22                   -979.3      -983.356               
    19 r.23                  135.341             0               
    20 r.24                        0      -981.327               
    21 r.25                  135.341             0               
    22 r.26                  76.6521      -959.838               
    23 r.27                  1135.34             0               
    24 r.28                 -864.659      -968.118               
    25 r.29                  1135.34             0               
    26 r.30                 -864.659      -941.311               
    27 r.31                  135.341             0               
    28 r.32                 -823.835      -959.176               
    29 r.33                        1             1             = 
    30 r.34                        1             1             = 
    31 r.35                        1             1             = 
    32 r.36                        1             1             = 
    33 r.37                        1             1             = 
    34 r.38                        1             1             = 
    35 r.39                        1             1             = 
    36 r.40                  51.6287       34.9852               
    37 r.41                 -53.1287      -965.133               
    38 r.42                   174.52       37.3019               
    39 r.43                  -171.52      -962.767               
    40 r.44                  965.133       2.53773               
    41 r.45                 -965.133      -965.133               
    42 r.46                  962.767        4.7138               
    43 r.47                 -962.767      -962.767               
    44 r.48                  136.821        5.5364               
    45 r.49                 -136.821      -965.133               
    46 r.50                  7.40368       7.40368               
    47 r.51                 -7.40368      -962.767               
    48 r.52                  16.6435       16.6435               
    49 r.53                 -16.6435      -965.133               
    50 r.54                  958.053       18.6729               
    51 r.55                 -958.053      -962.767               
    52 r.56                  72.5956      -936.702               
    53 r.57                 -868.715      -921.844               
    54 r.58                  34.7052      -936.702               
    55 r.59                 -906.606      -921.844               
    56 r.60                 -868.715      -906.606               
    57 r.61                 -827.891      -889.765               
    58 r.62                 -906.606      -906.606               
    59 r.63                 -865.781      -889.765               
    60 r.64                  946.871       34.8669               
    61 r.65                 -946.871      -965.015               
    62 r.66                   828.48       37.2331               
    63 r.67                  -828.48      -962.698               
    64 r.68                  912.004       2.53773               
    65 r.69                 -912.004      -965.015               
    66 r.70                  791.246        4.7138               
    67 r.71                 -791.246      -962.698               
    68 r.72                  83.6922        5.5364               
    69 r.73                 -83.6922      -965.015               
    70 r.74                  835.883       7.40368               
    71 r.75                 -835.883      -962.698               
    72 r.76                  963.515       16.6435               
    73 r.77                 -963.515      -965.015               
    74 r.78                  786.533       18.6729               
    75 r.79                 -786.533      -962.698               
    76 r.80                  19.4669      -936.702               
    77 r.81                 -921.844      -921.844               
    78 r.82                  863.185      -936.702               
    79 r.83                 -78.1264      -921.844               
    80 r.84                  78.1558       58.6889               
    81 r.85                 -78.1558      -965.015               
    82 r.86                  962.698       40.8245               
    83 r.87                 -962.698      -962.698               
    84 r.88                  34.8669       34.8669               
    85 r.89                 -34.8669      -997.462               
    86 r.90                  37.2331       37.2331               
    87 r.91                 -37.2331      -995.286               
    88 r.92                  86.4956       34.9852               
    89 r.93                 -87.9956      -997.462               
    90 r.94                  211.754       37.3019               
    91 r.95                 -208.754      -995.286               
    92 r.96                  171.688        5.5364               
    93 r.97                 -171.688      -997.462               
    94 r.98                  44.6368       7.40368               
    95 r.99                 -44.6368      -995.286               
    96 r.100                 51.5104       16.6435               
    97 r.101                -51.5104      -997.462               
    98 r.102                 995.286       18.6729               
    99 r.103                -995.286      -995.286               
   100 r.104                 107.463      -936.702               
   101 r.105                -833.849      -921.844               
   102 r.106                 71.9383      -936.702               
   103 r.107                -869.373      -921.844               
   104 r.108                -833.849      -906.606               
   105 r.109                -793.024      -889.765               
   106 r.110                -869.373      -906.606               
   107 r.111                -828.548      -889.765               
   108 r.112                 863.179       34.8669               
   109 r.113                -863.179      -994.464               
   110 r.114                 992.596       37.2331               
   111 r.115                -992.596      -992.596               
   112 r.116                 914.808       34.9852               
   113 r.117                -916.308      -994.464               
   114 r.118                 167.117       37.3019               
   115 r.119                -164.117      -992.596               
   116 r.120                 828.312       2.53773               
   117 r.121                -828.312      -994.464               
   118 r.122                 955.363        4.7138               
   119 r.123                -955.363      -992.596               
   120 r.124                 879.823       16.6435               
   121 r.125                -879.823      -994.464               
   122 r.126                 950.649       18.6729               
   123 r.127                -950.649      -992.596               
   124 r.128                 935.775      -936.702               
   125 r.129                 -5.5364      -921.844               
   126 r.130                 27.3015      -936.702               
   127 r.131                 -914.01      -921.844               
   128 r.132                 994.464       58.6889               
   129 r.133                -994.464      -994.464               
   130 r.134                 126.815       40.8245               
   131 r.135                -126.815      -992.596               
   132 r.136                 983.356       34.8669               
   133 r.137                -983.356      -983.356               
   134 r.138                 41.9469       37.2331               
   135 r.139                -41.9469      -981.327               
   136 r.140                 34.9852       34.9852               
   137 r.141                -36.4852      -983.356               
   138 r.142                 216.467       37.3019               
   139 r.143                -213.467      -981.327               
   140 r.144                  948.49       2.53773               
   141 r.145                 -948.49      -983.356               
   142 r.146                  4.7138        4.7138               
   143 r.147                 -4.7138      -981.327               
   144 r.148                 120.177        5.5364               
   145 r.149                -120.177      -983.356               
   146 r.150                 49.3506       7.40368               
   147 r.151                -49.3506      -981.327               
   148 r.152                 55.9521       40.1616               
   149 r.153                -55.9521      -983.356               
   150 r.154                 135.341       31.8823               
   151 r.155                -135.341      -981.327               
   152 r.156                -885.359      -906.606               
   153 r.157                -844.534      -889.765               
   154 r.158                -864.659      -906.606               
   155 r.159                -823.835      -889.765               
   156 r.160                 72.5956      -936.702               
   157 r.161                -868.715      -921.844               
   158 r.162                 34.7052      -936.702               
   159 r.163                -906.606      -921.844               
   160 r.164                 19.4669      -936.702               
   161 r.165                -921.844      -921.844               
   162 r.166                 863.185      -936.702               
   163 r.167                -78.1264      -921.844               
   164 r.168                 107.463      -936.702               
   165 r.169                -833.849      -921.844               
   166 r.170                 71.9383      -936.702               
   167 r.171                -869.373      -921.844               
   168 r.172                 935.775      -936.702               
   169 r.173                 -5.5364      -921.844               
   170 r.174                 27.3015      -936.702               
   171 r.175                 -914.01      -921.844               
   172 r.176                 944.048       16.6435               
   173 r.177                -944.048      -959.838               
   174 r.178                 864.659       18.6729               
   175 r.179                -864.659      -968.118               
   176 r.180                 58.6889       58.6889               
   177 r.181                -58.6889      -959.838               
   178 r.182                 40.8245       40.8245               
   179 r.183                -40.8245      -968.118               
   180 r.184                -868.715      -906.606               
   181 r.185                -827.891      -889.765               
   182 r.186                -906.606      -906.606               
   183 r.187                -865.781      -889.765               
   184 r.188                 920.344       34.9852               
   185 r.189                -921.844      -941.311               
   186 r.190                 40.3019       37.3019               
   187 r.191                -37.3019      -959.176               
   188 r.192                -833.849      -906.606               
   189 r.193                -793.024      -889.765               
   190 r.194                -869.373      -906.606               
   191 r.195                -828.548      -889.765               
   192 r.196                  5.5364        5.5364               
   193 r.197                 -5.5364      -941.311               
   194 r.198                 873.185       7.40368               
   195 r.199                -873.185      -959.176               
   196 r.200                -885.359      -906.606               
   197 r.201                -844.534      -889.765               
   198 r.202                -864.659      -906.606               
   199 r.203                -823.835      -889.765               
   200 r.204                 941.311       40.1616               
   201 r.205                -941.311      -941.311               
   202 r.206                 959.176       31.8823               
   203 r.207                -959.176      -959.176               

   No. Column name       Activity     Lower bound   Upper bound
------ ------------    ------------- ------------- -------------
     1 tt                    135.341             0               
     2 s_1_1        *              0             0             1 
     3 t_1_1                 131.285             0               
     4 s_1_7        *              0             0             1 
     5 s_2_1        *              1             0             1 
     6 t_2_1                 93.3941             0               
     7 s_2_7        *              1             0             1 
     8 s_1_2        *              1             0             1 
     9 t_1_2                 78.1558             0               
    10 s_2_2        *              0             0             1 
    11 t_2_2                 921.874             0               
    12 s_1_3        *              0             0             1 
    13 t_1_3                 166.151             0               
    14 s_2_3        *              1             0             1 
    15 t_2_3                 130.627             0               
    16 s_1_4        *              0             0             1 
    17 t_1_4                 994.464             0               
    18 s_2_4        *              1             0             1 
    19 t_2_4                 85.9904             0               
    20 s_1_5        *              1             0             1 
    21 t_1_5                 114.641             0               
    22 s_1_8        *              1             0             1 
    23 s_2_5        *              0             0             1 
    24 t_2_5                 135.341             0               
    25 s_2_8        *              0             0             1 
    26 t_1_7                 58.6889             0               
    27 t_2_7                       0             0               
    28 t_1_8                       0             0               
    29 t_2_8                 959.176             0               
    30 u_1_1_2      *              0             0             1 
    31 u_2_1_2      *              1             0             1 
    32 u_1_1_3      *              1             0             1 
    33 u_2_1_3      *              1             0             1 
    34 u_1_1_4      *              1             0             1 
    35 u_2_1_4      *              0             0             1 
    36 u_1_1_5      *              0             0             1 
    37 u_2_1_5      *              1             0             1 
    38 u_1_2_1      *              1             0             1 
    39 u_2_2_1      *              0             0             1 
    40 u_1_2_3      *              1             0             1 
    41 u_2_2_3      *              0             0             1 
    42 u_1_2_4      *              1             0             1 
    43 u_2_2_4      *              0             0             1 
    44 u_1_2_5      *              1             0             1 
    45 u_2_2_5      *              0             0             1 
    46 u_1_2_8      *              0             0             1 
    47 u_2_2_8      *              1             0             1 
    48 u_1_3_1      *              0             0             1 
    49 u_2_3_1      *              0             0             1 
    50 u_1_3_2      *              0             0             1 
    51 u_2_3_2      *              1             0             1 
    52 u_1_3_4      *              1             0             1 
    53 u_2_3_4      *              0             0             1 
    54 u_1_3_5      *              0             0             1 
    55 u_2_3_5      *              1             0             1 
    56 u_1_4_1      *              0             0             1 
    57 u_2_4_1      *              1             0             1 
    58 u_1_4_2      *              0             0             1 
    59 u_2_4_2      *              1             0             1 
    60 u_1_4_3      *              0             0             1 
    61 u_2_4_3      *              1             0             1 
    62 u_1_4_5      *              0             0             1 
    63 u_2_4_5      *              1             0             1 
    64 u_1_4_8      *              0             0             1 
    65 u_2_4_8      *              1             0             1 
    66 u_1_5_1      *              1             0             1 
    67 u_2_5_1      *              0             0             1 
    68 u_1_5_2      *              0             0             1 
    69 u_2_5_2      *              1             0             1 
    70 u_1_5_3      *              1             0             1 
    71 u_2_5_3      *              0             0             1 
    72 u_1_5_4      *              1             0             1 
    73 u_2_5_4      *              0             0             1 
    74 u_1_5_7      *              0             0             1 
    75 u_2_5_7      *              0             0             1 
    76 u_1_7_5      *              1             0             1 
    77 u_2_7_5      *              1             0             1 
    78 u_1_7_8      *              0             0             1 
    79 u_2_7_8      *              1             0             1 
    80 u_1_8_2      *              1             0             1 
    81 u_2_8_2      *              0             0             1 
    82 u_1_8_4      *              1             0             1 
    83 u_2_8_4      *              0             0             1 
    84 u_1_8_7      *              1             0             1 
    85 u_2_8_7      *              0             0             1 

Integer feasibility conditions:

KKT.PE: max.abs.err = 2.27e-13 on row 12
        max.rel.err = 1.05e-16 on row 119
        High quality

KKT.PB: max.abs.err = 5.68e-14 on row 178
        max.rel.err = 6.52e-15 on row 192
        High quality

End of output
